
Gurobi 9.1.2 (win64, Java) logging started Sat Nov 13 13:35:16 2021

Academic license - for non-commercial use only - expires 2022-10-30
Gurobi Optimizer version 9.1.2 build v9.1.2rc0 (win64)
Thread count: 6 physical cores, 12 logical processors, using up to 12 threads
Optimize a model with 30 rows, 200 columns and 400 nonzeros
Model fingerprint: 0xa79f705d
Variable types: 0 continuous, 200 integer (200 binary)
Coefficient statistics:
  Matrix range     [1e+00, 9e+02]
  Objective range  [4e+02, 1e+03]
  Bounds range     [1e+00, 1e+00]
  RHS range        [1e+00, 1e+03]
Found heuristic solution: objective 8381.0000000
Presolve removed 5 rows and 119 columns
Presolve time: 0.00s
Presolved: 25 rows, 81 columns, 162 nonzeros
Variable types: 0 continuous, 81 integer (81 binary)
Presolved: 25 rows, 81 columns, 162 nonzeros


Root relaxation: objective 1.030758e+04, 64 iterations, 0.00 seconds

    Nodes    |    Current Node    |     Objective Bounds      |     Work
 Expl Unexpl |  Obj  Depth IntInf | Incumbent    BestBd   Gap | It/Node Time

     0     0 10307.5806    0    9 8381.00000 10307.5806  23.0%     -    0s
H    0     0                    9316.0000000 10307.5806  10.6%     -    0s
H    0     0                    9346.0000000 10307.5806  10.3%     -    0s
H    0     0                    9680.0000000 10307.5806  6.48%     -    0s
     0     0 9965.54617    0   13 9680.00000 9965.54617  2.95%     -    0s
     0     0 9964.55667    0   14 9680.00000 9964.55667  2.94%     -    0s
     0     0 9949.32078    0   17 9680.00000 9949.32078  2.78%     -    0s
H    0     0                    9821.0000000 9949.32078  1.31%     -    0s
     0     0 9948.67012    0   12 9821.00000 9948.67012  1.30%     -    0s
     0     0 9942.78572    0   16 9821.00000 9942.78572  1.24%     -    0s
H    0     0                    9927.0000000 9942.78572  0.16%     -    0s
     0     0 9942.37750    0   19 9927.00000 9942.37750  0.15%     -    0s
     0     0 9941.18762    0   25 9927.00000 9941.18762  0.14%     -    0s
     0     0 9941.06380    0   18 9927.00000 9941.06380  0.14%     -    0s
     0     0 9936.55340    0    7 9927.00000 9936.55340  0.10%     -    0s
     0     0 9936.55340    0    1 9927.00000 9936.55340  0.10%     -    0s
     0     0     cutoff    0      9927.00000 9927.00000  0.00%     -    0s

Cutting planes:
  Gomory: 1
  Cover: 1

Explored 1 nodes (205 simplex iterations) in 0.05 seconds
Thread count was 12 (of 12 available processors)

Solution count 7: 9927 9821 9680 ... 8381

Optimal solution found (tolerance 1.00e-12)
Best objective 9.927000000000e+03, best bound 9.927000000000e+03, gap 0.0000%
